
Gurobi 6.0.5 (linux64) logging started Thu Apr 13 06:47:49 2023


ERROR 10009: License expired 2017-03-16


Gurobi 6.0.5 (linux64) logging started Wed Apr 13 06:48:06 2016


Gurobi 6.0.5 (linux64) logging started Wed Apr 13 07:12:56 2016

